50
16119

935 267
239 505
490 745
294 350
404 518
318 270
550 152
254 444
496 862
550 849
525 462
280 399
883 471
597 544
460 584
78 628
266 111
410 963
324 220
422 52
93 43
110 984
367 553
309 905
570 485
76 411
6 288
336 778
451 307
344 333
961 774
414 425
924 684
566 75
373 78
242 635
712 230
243 54
993 758
105 21
399 995
564 623
304 198
914 687
486 280
758 819
219 974
852 297
78 211
620 441
